60
706
5
29
45
36
80
70
0 7
0 11
0 13
0 17
0 19
0 26
0 30
0 33
0 34
0 36
0 40
0 43
0 44
0 45
0 52
0 58
1 4
1 6
1 9
1 10
1 13
1 14
1 18
1 21
1 23
1 25
1 28
1 33
1 34
1 38
1 41
1 44
1 45
1 46
1 47
1 49
1 50
1 52
1 53
1 56
1 57
1 58
2 4
2 6
2 7
2 8
2 9
2 10
2 12
2 13
2 15
2 17
2 18
2 21
2 23
2 25
2 26
2 28
2 29
2 30
2 32
2 34
2 35
2 36
2 39
2 40
2 46
2 56
2 57
2 59
3 7
3 8
3 13
3 17
3 24
3 27
3 30
3 31
3 33
3 35
3 36
3 39
3 40
3 41
3 44
3 45
3 47
3 48
3 50
3 54
4 6
4 7
4 14
4 15
4 18
4 21
4 22
4 24
4 31
4 32
4 37
4 40
4 41
4 42
4 43
4 46
4 49
4 50
4 53
4 57
5 7
5 8
5 16
5 18
5 19
5 20
5 21
5 22
5 23
5 25
5 28
5 32
5 36
5 44
5 47
5 56
5 57
5 59
6 7
6 8
6 10
6 13
6 14
6 15
6 16
6 17
6 18
6 19
6 20
6 22
6 24
6 28
6 31
6 38
6 39
6 40
6 42
6 47
6 48
6 49
6 50
6 51
6 52
6 57
6 58
7 11
7 12
7 14
7 16
7 19
7 21
7 23
7 26
7 27
7 30
7 31
7 33
7 38
7 40
7 42
7 44
7 45
7 46
7 51
7 53
7 54
7 56
8 9
8 13
8 14
8 15
8 16
8 17
8 18
8 19
8 22
8 24
8 25
8 28
8 29
8 32
8 35
8 37
8 42
8 43
8 46
8 47
8 48
8 49
8 50
8 53
8 58
9 11
9 12
9 14
9 15
9 17
9 23
9 30
9 31
9 34
9 35
9 37
9 38
9 39
9 42
9 45
9 47
9 50
9 58
10 11
10 12
10 14
10 15
10 16
10 19
10 21
10 23
10 25
10 30
10 32
10 35
10 37
10 44
10 48
10 54
10 57
10 59
11 14
11 16
11 17
11 21
11 22
11 28
11 35
11 37
11 38
11 39
11 40
11 42
11 43
11 45
11 47
11 51
11 53
11 55
11 58
11 59
12 16
12 18
12 23
12 25
12 29
12 31
12 32
12 35
12 37
12 50
12 51
12 52
12 53
12 59
13 16
13 24
13 27
13 29
13 30
13 31
13 34
13 35
13 45
13 46
13 48
13 50
13 52
13 56
13 57
14 17
14 25
14 28
14 35
14 36
14 49
14 54
14 56
14 57
15 16
15 17
15 23
15 25
15 26
15 29
15 30
15 31
15 32
15 34
15 37
15 39
15 40
15 46
15 49
15 50
15 52
15 54
15 57
16 18
16 20
16 21
16 29
16 31
16 33
16 39
16 43
16 44
16 46
16 50
16 53
16 54
16 57
16 58
17 18
17 19
17 21
17 23
17 24
17 27
17 31
17 34
17 36
17 38
17 39
17 40
17 41
17 44
17 51
17 52
17 55
17 56
17 59
18 19
18 21
18 22
18 23
18 26
18 28
18 29
18 30
18 32
18 37
18 38
18 41
18 45
18 47
18 49
18 50
18 52
18 53
18 56
18 58
19 21
19 23
19 24
19 31
19 32
19 33
19 35
19 38
19 42
19 45
19 47
19 48
19 55
19 59
20 21
20 24
20 25
20 34
20 39
20 44
20 45
20 51
20 52
20 53
20 54
20 55
20 59
21 23
21 25
21 28
21 29
21 30
21 31
21 34
21 35
21 37
21 40
21 48
21 52
21 53
21 57
22 24
22 26
22 30
22 33
22 35
22 40
22 45
22 47
22 50
22 55
22 57
22 58
23 24
23 27
23 30
23 31
23 33
23 35
23 39
23 40
23 44
23 53
23 56
23 57
23 58
24 25
24 29
24 30
24 31
24 34
24 35
24 36
24 37
24 38
24 40
24 43
24 44
24 48
24 53
24 56
24 58
24 59
25 26
25 29
25 30
25 31
25 36
25 41
25 43
25 44
25 45
25 46
25 49
25 51
25 53
25 54
25 55
25 57
25 58
25 59
26 27
26 28
26 31
26 34
26 39
26 43
26 44
26 45
26 46
26 48
26 50
26 51
26 52
26 53
26 54
26 59
27 29
27 31
27 36
27 41
27 42
27 43
27 44
27 45
27 47
27 53
27 54
27 55
27 59
28 30
28 35
28 37
28 39
28 40
28 43
28 44
28 45
28 53
28 59
29 30
29 34
29 35
29 36
29 38
29 39
29 40
29 44
29 45
29 47
29 49
29 50
29 51
29 54
30 31
30 40
30 42
30 43
30 45
30 49
30 53
30 57
30 59
31 32
31 33
31 37
31 39
31 46
31 54
31 55
31 56
31 57
31 59
32 33
32 35
32 38
32 39
32 42
32 44
32 46
32 48
32 49
32 50
33 40
33 41
33 44
33 45
33 48
33 49
33 51
33 53
33 54
33 56
34 35
34 39
34 42
34 44
34 45
34 46
34 47
34 50
34 54
34 56
34 58
35 38
35 40
35 41
35 42
35 49
35 52
35 57
35 58
36 39
36 42
36 43
36 50
36 51
36 52
36 55
36 57
36 58
37 38
37 39
37 41
37 44
37 45
37 51
37 53
37 56
37 58
37 59
38 41
38 42
38 43
38 45
38 47
38 48
38 49
38 50
38 54
38 59
39 40
39 46
39 47
39 48
39 49
39 52
39 53
39 56
39 57
39 58
39 59
40 41
40 43
40 49
40 50
40 51
40 54
40 57
41 43
41 44
41 45
41 47
41 48
41 49
41 51
41 53
41 54
41 55
41 57
41 59
42 43
42 44
42 49
42 53
42 55
42 57
42 58
43 46
43 48
43 51
43 52
43 56
43 58
44 47
44 49
44 54
44 55
45 46
45 48
45 50
45 52
45 53
45 56
45 57
46 49
46 52
46 56
46 58
46 59
47 50
47 51
47 53
47 56
47 59
48 51
48 53
48 54
48 57
48 58
48 59
49 50
49 52
49 57
49 59
50 52
50 54
50 56
51 52
51 56
51 57
51 59
52 57
52 58
52 59
53 55
53 56
53 58
54 57
55 57
55 58
55 59
56 57
56 58
56 59
57 58
58 59
0 2 16 53 36 9 56 34 50 8 42 29
44 38 59 28 43 39 1 35 6 47 46 10
41 27 4 40 33 51 17 32 57 31 54 12
3 58 48 23 15 18 26 5 52 24 30 13
45 49 22 7 37 55 21 11 14 20 25 19
